c Circuit-CNF generated by TG-PRO v1.0 (c) Huan Chen and Joao Marques-Silva
p cnf 849 2416
1 2 0
-1 -2 0
3 4 0
-3 -4 0
5 6 0
-5 -6 0
7 8 0
-7 -8 0
9 10 0
-9 -10 0
11 12 0
-11 -12 0
13 14 0
-13 -14 0
15 16 0
-15 -16 0
17 18 0
-17 -18 0
19 20 0
-19 -20 0
21 22 0
-21 -22 0
23 24 0
-23 -24 0
25 26 0
-25 -26 0
27 28 0
-27 -28 0
29 30 0
-29 -30 0
31 32 0
-31 -32 0
33 34 0
-33 -34 0
35 36 0
-35 -36 0
37 38 0
-37 -38 0
-39 40 0
-39 41 0
39 -40 -41 0
-42 43 0
-42 41 0
42 -43 -41 0
-44 45 0
-44 41 0
44 -45 -41 0
-46 47 0
-46 41 0
46 -47 -41 0
-48 49 0
-48 41 0
48 -49 -41 0
-50 51 0
-50 41 0
50 -51 -41 0
52 53 0
-52 -53 0
54 -55 0
54 -56 0
-54 55 56 0
57 54 0
-57 -54 0
58 -59 0
58 -60 0
-58 59 60 0
61 58 0
-61 -58 0
62 -63 0
62 -64 0
-62 63 64 0
65 62 0
-65 -62 0
66 -63 0
66 -67 0
-66 63 67 0
68 66 0
-68 -66 0
69 -70 0
69 -71 0
-69 70 71 0
72 69 0
-72 -69 0
73 -74 0
73 -56 0
-73 74 56 0
75 73 0
-75 -73 0
76 -67 0
76 -77 0
-76 67 77 0
78 76 0
-78 -76 0
79 80 0
-79 -80 0
81 59 0
-81 -59 0
82 -63 0
82 -56 0
-82 63 56 0
83 82 0
-83 -82 0
84 -55 0
84 -63 0
-84 55 63 0
74 84 0
-74 -84 0
85 -86 0
85 -87 0
-85 86 87 0
88 85 0
-88 -85 0
89 -75 0
89 -67 0
-89 75 67 0
90 89 0
-90 -89 0
91 -92 0
91 -53 0
-91 92 53 0
93 91 0
-93 -91 0
94 -95 0
94 -63 0
-94 95 63 0
96 94 0
-96 -94 0
97 -56 0
97 -77 0
-97 56 77 0
98 97 0
-98 -97 0
99 -100 0
99 -86 0
-99 100 86 0
101 99 0
-101 -99 0
102 -79 0
102 -60 0
-102 79 60 0
103 102 0
-103 -102 0
104 -62 0
104 -105 0
-104 62 105 0
106 104 0
-106 -104 0
107 92 0
-107 -92 0
108 -95 0
108 -64 0
-108 95 64 0
109 108 0
-109 -108 0
110 -100 0
110 -71 0
-110 100 71 0
111 110 0
-111 -110 0
112 55 0
-112 -55 0
113 -56 0
113 -64 0
-113 56 64 0
114 113 0
-114 -113 0
115 -63 0
115 -77 0
-115 63 77 0
116 115 0
-116 -115 0
56 105 0
-56 -105 0
60 117 0
-60 -117 0
118 -67 0
118 -71 0
-118 67 71 0
119 118 0
-119 -118 0
86 67 0
-86 -67 0
95 87 0
-95 -87 0
63 71 0
-63 -71 0
77 64 0
-77 -64 0
120 -100 0
120 -105 0
-120 100 105 0
121 120 0
-121 -120 0
122 -52 0
122 -107 0
-122 52 107 0
123 122 0
-123 -122 0
124 -67 0
124 -64 0
-124 67 64 0
125 124 0
-125 -124 0
126 -71 0
126 -105 0
-126 71 105 0
127 126 0
-127 -126 0
100 128 0
-100 -128 0
70 129 0
-70 -129 0
130 -131 0
130 -132 0
-130 131 132 0
2 130 0
-2 -130 0
-133 134 0
-133 100 0
133 -134 -100 0
4 133 0
-4 -133 0
135 -136 0
135 -137 0
-135 136 137 0
6 135 0
-6 -135 0
-138 139 0
-138 77 0
138 -139 -77 0
8 138 0
-8 -138 0
-140 141 0
-140 142 0
140 -141 -142 0
10 140 0
-10 -140 0
143 -144 0
143 -145 0
-143 144 145 0
12 143 0
-12 -143 0
-146 147 0
-146 77 0
146 -147 -77 0
14 146 0
-14 -146 0
148 -149 0
148 -150 0
-148 149 150 0
16 148 0
-16 -148 0
-151 152 0
-151 71 0
151 -152 -71 0
18 151 0
-18 -151 0
-153 154 0
-153 155 0
153 -154 -155 0
20 153 0
-20 -153 0
156 -157 0
156 -158 0
-156 157 158 0
22 156 0
-22 -156 0
159 -160 0
159 -161 0
-159 160 161 0
24 159 0
-24 -159 0
162 -163 0
162 -164 0
-162 163 164 0
26 162 0
-26 -162 0
165 -166 0
165 -167 0
-165 166 167 0
28 165 0
-28 -165 0
168 -169 0
168 -170 0
-168 169 170 0
30 168 0
-30 -168 0
-171 172 0
-171 77 0
171 -172 -77 0
32 171 0
-32 -171 0
173 -174 0
173 -175 0
-173 174 175 0
34 173 0
-34 -173 0
176 -177 0
176 -178 0
-176 177 178 0
36 176 0
-36 -176 0
179 -180 0
179 -181 0
-179 180 181 0
38 179 0
-38 -179 0
182 -183 0
182 -184 0
-182 183 184 0
185 182 0
-185 -182 0
40 185 0
-40 -185 0
186 -187 0
186 -188 0
-186 187 188 0
189 186 0
-189 -186 0
43 189 0
-43 -189 0
190 -191 0
190 -192 0
-190 191 192 0
193 190 0
-193 -190 0
45 193 0
-45 -193 0
194 -195 0
194 -196 0
-194 195 196 0
197 194 0
-197 -194 0
47 197 0
-47 -197 0
198 -199 0
198 -200 0
-198 199 200 0
201 198 0
-201 -198 0
49 201 0
-49 -201 0
202 -203 0
202 -204 0
-202 203 204 0
205 202 0
-205 -202 0
51 205 0
-51 -205 0
-206 70 0
-206 77 0
206 -70 -77 0
-207 128 0
-207 105 0
207 -128 -105 0
-208 209 0
-208 105 0
208 -209 -105 0
-210 211 0
-210 86 0
210 -211 -86 0
-212 71 0
-212 56 0
212 -71 -56 0
-213 55 0
-213 105 0
213 -55 -105 0
-214 128 0
-214 77 0
214 -128 -77 0
-215 216 0
-215 64 0
215 -216 -64 0
-217 100 0
-217 63 0
217 -100 -63 0
-218 67 0
-218 71 0
218 -67 -71 0
-219 86 0
-219 105 0
219 -86 -105 0
-220 117 0
-220 56 0
220 -117 -56 0
-221 79 0
-221 60 0
221 -79 -60 0
-222 67 0
-222 63 0
222 -67 -63 0
-223 59 0
-223 64 0
223 -59 -64 0
-224 225 0
-224 98 0
224 -225 -98 0
-226 227 0
-226 56 0
226 -227 -56 0
-228 229 0
-228 226 0
228 -229 -226 0
-230 67 0
-230 71 0
230 -67 -71 0
-231 86 0
-231 56 0
231 -86 -56 0
-232 233 0
-232 77 0
232 -233 -77 0
-234 235 0
-234 68 0
234 -235 -68 0
-236 86 0
-236 83 0
236 -86 -83 0
-237 100 0
-237 56 0
237 -100 -56 0
-238 239 0
-238 123 0
238 -239 -123 0
-240 128 0
-240 88 0
240 -128 -88 0
-241 242 0
-241 74 0
241 -242 -74 0
-243 244 0
-243 111 0
243 -244 -111 0
-245 246 0
-245 125 0
245 -246 -125 0
-247 71 0
-247 56 0
247 -71 -56 0
-248 63 0
-248 98 0
248 -63 -98 0
-249 100 0
-249 105 0
249 -100 -105 0
-250 251 0
-250 119 0
250 -251 -119 0
-252 253 0
-252 101 0
252 -253 -101 0
-254 255 0
-254 123 0
254 -255 -123 0
-256 87 0
-256 101 0
256 -87 -101 0
-257 55 0
-257 105 0
257 -55 -105 0
-258 63 0
-258 123 0
258 -63 -123 0
-259 260 0
-259 77 0
259 -260 -77 0
-261 262 0
-261 98 0
261 -262 -98 0
-263 112 0
-263 83 0
263 -112 -83 0
-264 265 0
-264 64 0
264 -265 -64 0
-266 267 0
-266 123 0
266 -267 -123 0
-268 67 0
-268 123 0
268 -67 -123 0
-269 270 0
-269 77 0
269 -270 -77 0
-271 272 0
-271 105 0
271 -272 -105 0
-273 121 0
-273 68 0
273 -121 -68 0
-274 275 0
-274 64 0
274 -275 -64 0
-276 277 0
-276 121 0
276 -277 -121 0
-278 279 0
-278 78 0
278 -279 -78 0
-280 67 0
-280 83 0
280 -67 -83 0
-281 282 0
-281 64 0
281 -282 -64 0
-283 77 0
-283 101 0
283 -77 -101 0
-284 285 0
-284 61 0
284 -285 -61 0
-286 125 0
-286 123 0
286 -125 -123 0
-287 288 0
-287 77 0
287 -288 -77 0
-289 56 0
-289 78 0
289 -56 -78 0
-290 79 0
-290 86 0
290 -79 -86 0
-291 292 0
-291 86 0
291 -292 -86 0
-293 105 0
-293 101 0
293 -105 -101 0
-294 295 0
-294 127 0
294 -295 -127 0
-296 297 0
-296 114 0
296 -297 -114 0
-298 299 0
-298 114 0
298 -299 -114 0
-300 64 0
-300 121 0
300 -64 -121 0
-301 71 0
-301 114 0
301 -71 -114 0
-302 129 0
-302 78 0
302 -129 -78 0
-303 304 0
-303 63 0
303 -304 -63 0
-305 86 0
-305 83 0
305 -86 -83 0
-306 307 0
-306 71 0
306 -307 -71 0
-308 100 0
-308 63 0
308 -100 -63 0
-309 79 0
-309 116 0
309 -79 -116 0
-310 311 0
-310 111 0
310 -311 -111 0
-312 313 0
-312 83 0
312 -313 -83 0
-314 315 0
-314 77 0
314 -315 -77 0
-316 317 0
-316 77 0
316 -317 -77 0
-318 117 0
-318 98 0
318 -117 -98 0
-319 320 0
-319 77 0
319 -320 -77 0
-321 67 0
-321 56 0
321 -67 -56 0
-322 323 0
-322 88 0
322 -323 -88 0
-324 325 0
-324 74 0
324 -325 -74 0
-326 327 0
-326 100 0
326 -327 -100 0
-328 329 0
-328 326 0
328 -329 -326 0
-330 331 0
-330 83 0
330 -331 -83 0
-332 128 0
-332 62 0
332 -128 -62 0
-333 77 0
-333 96 0
333 -77 -96 0
-334 63 0
-334 77 0
334 -63 -77 0
-335 115 0
-335 86 0
335 -115 -86 0
-336 63 0
-336 77 0
336 -63 -77 0
-337 108 0
-337 56 0
337 -108 -56 0
-338 99 0
-338 63 0
338 -99 -63 0
-339 340 0
-339 71 0
339 -340 -71 0
-341 342 0
-341 127 0
341 -342 -127 0
-343 344 0
-343 83 0
343 -344 -83 0
-345 63 0
-345 98 0
345 -63 -98 0
-346 54 0
-346 65 0
346 -54 -65 0
-347 102 0
-347 56 0
347 -102 -56 0
-348 87 0
-348 105 0
348 -87 -105 0
-349 350 0
-349 77 0
349 -350 -77 0
-351 352 0
-351 78 0
351 -352 -78 0
353 -67 0
353 -220 0
-353 67 220 0
-354 353 0
-354 63 0
354 -353 -63 0
-355 86 0
-355 83 0
355 -86 -83 0
-356 118 0
-356 77 0
356 -118 -77 0
-357 63 0
-357 78 0
357 -63 -78 0
-358 67 0
-358 127 0
358 -67 -127 0
-359 82 0
-359 78 0
359 -82 -78 0
-360 361 0
-360 77 0
360 -361 -77 0
362 -67 0
362 -223 0
-362 67 223 0
-363 364 0
-363 105 0
363 -364 -105 0
365 -207 0
365 -206 0
-365 207 206 0
-366 81 0
-366 365 0
366 -81 -365 0
-367 128 0
-367 98 0
367 -128 -98 0
368 -215 0
368 -214 0
-368 215 214 0
-369 79 0
-369 368 0
369 -79 -368 0
-370 77 0
-370 121 0
370 -77 -121 0
-371 71 0
-371 56 0
371 -71 -56 0
372 -221 0
372 -105 0
-372 221 105 0
-373 372 0
-373 63 0
373 -372 -63 0
-374 66 0
-374 105 0
374 -66 -105 0
-375 128 0
-375 126 0
375 -128 -126 0
-376 105 0
-376 85 0
376 -105 -85 0
-377 94 0
-377 56 0
377 -94 -56 0
-378 76 0
-378 63 0
378 -76 -63 0
-379 64 0
-379 68 0
379 -64 -68 0
-380 122 0
-380 77 0
380 -122 -77 0
381 -213 0
381 -212 0
-381 213 212 0
-382 381 0
-382 100 0
382 -381 -100 0
-383 56 0
-383 96 0
383 -56 -96 0
-384 100 0
-384 114 0
384 -100 -114 0
-385 124 0
-385 121 0
385 -124 -121 0
-386 126 0
-386 64 0
386 -126 -64 0
-387 77 0
-387 72 0
387 -77 -72 0
-388 56 0
-388 77 0
388 -56 -77 0
-389 97 0
-389 86 0
389 -97 -86 0
-142 390 0
-142 71 0
142 -390 -71 0
-391 392 0
-391 82 0
391 -392 -82 0
-393 394 0
-393 127 0
393 -394 -127 0
-395 109 0
-395 118 0
395 -109 -118 0
-396 71 0
-396 78 0
396 -71 -78 0
397 -107 0
397 -53 0
-397 107 53 0
-398 63 0
-398 397 0
398 -63 -397 0
399 -60 0
399 -71 0
-399 60 71 0
-400 401 0
-400 77 0
400 -401 -77 0
-402 105 0
-402 62 0
402 -105 -62 0
-403 105 0
-403 94 0
403 -105 -94 0
-404 71 0
-404 56 0
404 -71 -56 0
405 -87 0
405 -129 0
-405 87 129 0
-406 407 0
-406 118 0
406 -407 -118 0
-408 71 0
-408 78 0
408 -71 -78 0
409 -346 0
409 -345 0
-409 346 345 0
-410 409 0
-410 86 0
410 -409 -86 0
-411 412 0
-411 127 0
411 -412 -127 0
413 -123 0
413 -87 0
-413 123 87 0
-414 413 0
-414 114 0
414 -413 -114 0
-415 119 0
-415 97 0
415 -119 -97 0
-416 67 0
-416 106 0
416 -67 -106 0
417 -258 0
417 -257 0
-417 258 257 0
-418 417 0
-418 77 0
418 -417 -77 0
-419 56 0
-419 116 0
419 -56 -116 0
420 -286 0
420 -284 0
-420 286 284 0
-421 112 0
-421 420 0
421 -112 -420 0
-422 56 0
-422 125 0
422 -56 -125 0
423 -241 0
423 -240 0
-423 241 240 0
-424 425 0
-424 105 0
424 -425 -105 0
-426 427 0
-426 123 0
426 -427 -123 0
428 -252 0
428 -250 0
-428 252 250 0
-145 429 0
-145 56 0
145 -429 -56 0
-430 431 0
-430 86 0
430 -431 -86 0
-144 432 0
-144 430 0
144 -432 -430 0
433 -55 0
433 -64 0
-433 55 64 0
-434 433 0
-434 105 0
434 -433 -105 0
435 -256 0
435 -254 0
-435 256 254 0
436 -57 0
436 -231 0
-436 57 231 0
-437 70 0
-437 436 0
437 -70 -436 0
-438 67 0
-438 105 0
438 -67 -105 0
439 -98 0
439 -314 0
-439 98 314 0
-440 439 0
-440 63 0
440 -439 -63 0
-441 56 0
-441 116 0
441 -56 -116 0
442 -121 0
442 -63 0
-442 121 63 0
-443 442 0
-443 64 0
443 -442 -64 0
444 -98 0
444 -269 0
-444 98 269 0
-445 79 0
-445 444 0
445 -79 -444 0
446 -318 0
446 -316 0
-446 318 316 0
-447 81 0
-447 446 0
447 -81 -446 0
-448 63 0
-448 98 0
448 -63 -98 0
449 -238 0
449 -237 0
-449 238 237 0
-450 451 0
-450 77 0
450 -451 -77 0
-452 453 0
-452 78 0
452 -453 -78 0
454 -236 0
454 -77 0
-454 236 77 0
-455 454 0
-455 128 0
455 -454 -128 0
-456 63 0
-456 114 0
456 -63 -114 0
457 -261 0
457 -259 0
-457 261 259 0
-458 81 0
-458 457 0
458 -81 -457 0
-459 460 0
-459 123 0
459 -460 -123 0
461 -276 0
461 -274 0
-461 276 274 0
-137 462 0
-137 63 0
137 -462 -63 0
-136 463 0
-136 101 0
136 -463 -101 0
464 -228 0
464 -224 0
-464 228 224 0
465 -266 0
465 -264 0
-465 266 264 0
-466 467 0
-466 465 0
466 -467 -465 0
468 -302 0
468 -301 0
-468 302 301 0
-469 468 0
-469 128 0
469 -468 -128 0
470 -283 0
470 -281 0
-470 283 281 0
-471 79 0
-471 470 0
471 -79 -470 0
-472 473 0
-472 123 0
472 -473 -123 0
474 -296 0
474 -294 0
-474 296 294 0
-475 474 0
-475 86 0
475 -474 -86 0
-476 477 0
-476 98 0
476 -477 -98 0
478 -309 0
478 -67 0
-478 309 67 0
-479 478 0
-479 100 0
479 -478 -100 0
-480 481 0
-480 98 0
480 -481 -98 0
-482 483 0
-482 77 0
482 -483 -77 0
484 -58 0
484 -112 0
-484 58 112 0
-485 486 0
-485 98 0
485 -486 -98 0
487 -78 0
487 -56 0
-487 78 56 0
-488 487 0
-488 63 0
488 -487 -63 0
-489 71 0
-489 114 0
489 -71 -114 0
490 -248 0
490 -247 0
-490 248 247 0
-491 490 0
-491 100 0
491 -490 -100 0
-492 493 0
-492 114 0
492 -493 -114 0
494 -357 0
494 -356 0
-494 357 356 0
-495 494 0
-495 121 0
495 -494 -121 0
496 -387 0
496 -386 0
-496 387 386 0
-497 496 0
-497 86 0
497 -496 -86 0
-498 499 0
-498 127 0
498 -499 -127 0
500 -339 0
500 -338 0
-500 339 338 0
-501 502 0
-501 500 0
501 -502 -500 0
503 -351 0
503 -349 0
-503 351 349 0
-504 505 0
-504 503 0
504 -505 -503 0
506 -348 0
506 -347 0
-506 348 347 0
-507 128 0
-507 506 0
507 -128 -506 0
508 -381 0
508 -67 0
-508 381 67 0
-509 508 0
-509 100 0
509 -508 -100 0
-510 120 0
-510 123 0
510 -120 -123 0
511 -385 0
511 -384 0
-511 385 384 0
-512 511 0
-512 63 0
512 -511 -63 0
-513 514 0
-513 114 0
513 -514 -114 0
515 -389 0
515 -388 0
-515 389 388 0
-516 517 0
-516 71 0
516 -517 -71 0
-518 519 0
-518 114 0
518 -519 -114 0
520 -119 0
520 -230 0
-520 119 230 0
-521 522 0
-521 105 0
521 -522 -105 0
523 -383 0
523 -382 0
-523 383 382 0
-524 525 0
-524 86 0
524 -525 -86 0
526 -293 0
526 -291 0
-526 293 291 0
-527 526 0
-527 123 0
527 -526 -123 0
528 -373 0
528 -371 0
-528 373 371 0
-529 528 0
-529 64 0
529 -528 -64 0
-530 104 0
-530 67 0
530 -104 -67 0
531 -263 0
531 -127 0
-531 263 127 0
-532 533 0
-532 123 0
532 -533 -123 0
534 -367 0
534 -366 0
-534 367 366 0
-535 534 0
-535 86 0
535 -534 -86 0
-536 537 0
-536 114 0
536 -537 -114 0
538 -363 0
538 -360 0
-538 363 360 0
-539 538 0
-539 63 0
539 -538 -63 0
-540 86 0
-540 106 0
540 -86 -106 0
541 -113 0
541 -308 0
-541 113 308 0
-542 67 0
-542 541 0
542 -67 -541 0
543 -544 0
543 -376 0
-543 544 376 0
-545 128 0
-545 543 0
545 -128 -543 0
546 -64 0
546 -398 0
-546 64 398 0
-547 546 0
-547 56 0
547 -546 -56 0
548 -83 0
548 -375 0
-548 83 375 0
-549 129 0
-549 548 0
549 -129 -548 0
-550 100 0
-550 83 0
550 -100 -83 0
551 -402 0
551 -400 0
-551 402 400 0
-552 551 0
-552 67 0
552 -551 -67 0
-553 554 0
-553 74 0
553 -554 -74 0
-555 77 0
-555 126 0
555 -77 -126 0
556 -557 0
556 -403 0
-556 557 403 0
-558 86 0
-558 556 0
558 -86 -556 0
559 -335 0
559 -334 0
-559 335 334 0
-560 561 0
-560 56 0
560 -561 -56 0
562 -408 0
562 -406 0
-562 408 406 0
-563 562 0
-563 105 0
563 -562 -105 0
-564 565 0
-564 484 0
564 -565 -484 0
-566 567 0
-566 531 0
566 -567 -531 0
-568 569 0
-568 88 0
568 -569 -88 0
-570 129 0
-570 77 0
570 -129 -77 0
571 -396 0
571 -395 0
-571 396 395 0
-572 571 0
-572 105 0
572 -571 -105 0
-573 574 0
-573 88 0
573 -574 -88 0
-575 100 0
-575 90 0
575 -100 -90 0
576 -416 0
576 -415 0
-576 416 415 0
-577 576 0
-577 128 0
577 -576 -128 0
-578 579 0
-578 114 0
578 -579 -114 0
580 -419 0
580 -418 0
-580 419 418 0
-581 580 0
-581 86 0
581 -580 -86 0
-582 583 0
-582 114 0
582 -583 -114 0
584 -88 0
584 -249 0
-584 88 249 0
-585 584 0
-585 397 0
585 -584 -397 0
586 -219 0
586 -64 0
-586 219 64 0
-587 63 0
-587 586 0
587 -63 -586 0
-588 67 0
-588 113 0
588 -67 -113 0
589 -590 0
589 -434 0
-589 590 434 0
-591 100 0
-591 589 0
591 -100 -589 0
592 -333 0
592 -332 0
-592 333 332 0
-593 592 0
-593 56 0
593 -592 -56 0
594 -87 0
594 -56 0
-594 87 56 0
-595 128 0
-595 594 0
595 -128 -594 0
-596 71 0
-596 56 0
596 -71 -56 0
-597 89 0
-597 100 0
597 -89 -100 0
-598 599 0
-598 118 0
598 -599 -118 0
600 -438 0
600 -437 0
-600 438 437 0
-601 600 0
-601 71 0
601 -600 -71 0
602 -106 0
602 -448 0
-602 106 448 0
-603 602 0
-603 100 0
603 -602 -100 0
-604 605 0
-604 96 0
604 -605 -96 0
-606 114 0
-606 66 0
606 -114 -66 0
607 -558 0
607 -555 0
-607 558 555 0
-608 128 0
-608 607 0
608 -128 -607 0
609 -98 0
609 -380 0
-609 98 380 0
-610 609 0
-610 63 0
610 -609 -63 0
611 -337 0
611 -336 0
-611 337 336 0
-612 611 0
-612 86 0
612 -611 -86 0
613 -485 0
613 -482 0
-613 485 482 0
-614 613 0
-614 67 0
614 -613 -67 0
615 -480 0
615 -479 0
-615 480 479 0
-616 87 0
-616 615 0
616 -87 -615 0
617 -618 0
617 -529 0
-617 618 529 0
-619 617 0
-619 100 0
619 -617 -100 0
-620 621 0
-620 119 0
620 -621 -119 0
-622 67 0
-622 98 0
622 -67 -98 0
623 -414 0
623 -86 0
-623 414 86 0
-624 623 0
-624 71 0
624 -623 -71 0
-625 626 0
-625 114 0
625 -626 -114 0
627 -441 0
627 -440 0
-627 441 440 0
-628 629 0
-628 86 0
628 -629 -86 0
-630 631 0
-630 101 0
630 -631 -101 0
632 -476 0
632 -475 0
-632 476 475 0
633 -634 0
633 -507 0
-633 634 507 0
-167 70 0
-167 633 0
167 -70 -633 0
635 -127 0
635 -86 0
-635 127 86 0
-636 635 0
-636 128 0
636 -635 -128 0
-637 638 0
-637 114 0
637 -638 -114 0
639 -426 0
639 -424 0
-639 426 424 0
640 -489 0
640 -488 0
-640 489 488 0
-641 128 0
-641 640 0
641 -128 -640 0
642 -218 0
642 -217 0
-642 218 217 0
-643 642 0
-643 114 0
643 -642 -114 0
644 -210 0
644 -208 0
-644 210 208 0
-645 646 0
-645 644 0
645 -646 -644 0
647 -550 0
647 -549 0
-647 550 549 0
-648 647 0
-648 67 0
648 -647 -67 0
-649 650 0
-649 116 0
649 -650 -116 0
651 -245 0
651 -243 0
-651 245 243 0
-652 651 0
-652 122 0
652 -651 -122 0
653 -411 0
653 -410 0
-653 411 410 0
-654 100 0
-654 653 0
654 -100 -653 0
655 -393 0
655 -391 0
-655 393 391 0
-656 128 0
-656 655 0
656 -128 -655 0
657 -459 0
657 -458 0
-657 459 458 0
-658 657 0
-658 63 0
658 -657 -63 0
659 -540 0
659 -539 0
-659 540 539 0
-660 87 0
-660 659 0
660 -87 -659 0
661 -662 0
661 -521 0
-661 662 521 0
-170 661 0
-170 77 0
170 -661 -77 0
663 -563 0
663 -560 0
-663 563 560 0
-169 128 0
-169 663 0
169 -128 -663 0
664 -568 0
664 -566 0
-664 568 566 0
-155 665 0
-155 107 0
155 -665 -107 0
666 -667 0
666 -542 0
-666 667 542 0
-181 70 0
-181 666 0
181 -70 -666 0
668 -498 0
668 -497 0
-668 498 497 0
-180 668 0
-180 128 0
180 -668 -128 0
669 -553 0
669 -552 0
-669 553 552 0
-670 100 0
-670 669 0
670 -100 -669 0
671 -672 0
671 -443 0
-671 672 443 0
-673 671 0
-673 67 0
673 -671 -67 0
674 -56 0
674 -564 0
-674 56 564 0
-675 67 0
-675 674 0
675 -67 -674 0
676 -68 0
676 -268 0
-676 68 268 0
-677 678 0
-677 676 0
677 -678 -676 0
-679 56 0
-679 64 0
679 -56 -64 0
680 -113 0
680 -290 0
-680 113 290 0
-681 680 0
-681 63 0
681 -680 -63 0
682 -71 0
682 -222 0
-682 71 222 0
-683 684 0
-683 105 0
683 -684 -105 0
685 -575 0
685 -573 0
-685 575 573 0
-686 685 0
-686 123 0
686 -685 -123 0
687 -280 0
687 -278 0
-687 280 278 0
-688 100 0
-688 687 0
688 -100 -687 0
689 -625 0
689 -624 0
-689 625 624 0
-690 128 0
-690 689 0
690 -128 -689 0
691 -343 0
691 -341 0
-691 343 341 0
-692 693 0
-692 64 0
692 -693 -64 0
694 -422 0
694 -421 0
-694 422 421 0
-695 694 0
-695 71 0
695 -694 -71 0
696 -324 0
696 -322 0
-696 324 322 0
-697 698 0
-697 77 0
697 -698 -77 0
699 -604 0
699 -603 0
-699 604 603 0
-700 699 0
-700 86 0
700 -699 -86 0
701 -355 0
701 -354 0
-701 355 354 0
-702 703 0
-702 701 0
702 -703 -701 0
704 -472 0
704 -471 0
-704 472 471 0
-705 704 0
-705 56 0
705 -704 -56 0
706 -707 0
706 -610 0
-706 707 610 0
-708 128 0
-708 706 0
708 -128 -706 0
709 -111 0
709 -306 0
-709 111 306 0
-710 709 0
-710 109 0
710 -709 -109 0
711 -712 0
711 -713 0
-711 712 713 0
-175 70 0
-175 711 0
175 -70 -711 0
714 -518 0
714 -516 0
-714 518 516 0
-715 129 0
-715 714 0
715 -129 -714 0
716 -78 0
716 -321 0
-716 78 321 0
-717 716 0
-717 111 0
717 -716 -111 0
718 -643 0
718 -641 0
-718 643 641 0
-200 129 0
-200 718 0
200 -129 -718 0
719 -469 0
719 -466 0
-719 469 466 0
-720 95 0
-720 719 0
720 -95 -719 0
721 -722 0
721 -616 0
-721 722 616 0
-723 721 0
-723 70 0
723 -721 -70 0
724 -78 0
724 -319 0
-724 78 319 0
-725 724 0
-725 121 0
725 -724 -121 0
726 -630 0
726 -628 0
-726 630 628 0
-132 70 0
-132 726 0
132 -70 -726 0
727 -504 0
727 -501 0
-727 504 501 0
-728 727 0
-728 105 0
728 -727 -105 0
729 -312 0
729 -310 0
-729 312 310 0
-730 731 0
-730 125 0
730 -731 -125 0
732 -128 0
732 -374 0
-732 128 374 0
-158 733 0
-158 732 0
158 -733 -732 0
-734 128 0
-734 635 0
734 -128 -635 0
735 -736 0
735 -737 0
-735 736 737 0
-738 70 0
-738 735 0
738 -70 -735 0
739 -582 0
739 -581 0
-739 582 581 0
-740 70 0
-740 739 0
740 -70 -739 0
-741 119 0
-741 114 0
741 -119 -114 0
742 -359 0
742 -358 0
-742 359 358 0
-204 743 0
-204 128 0
204 -743 -128 0
744 -673 0
744 -670 0
-744 673 670 0
-745 744 0
-745 70 0
745 -744 -70 0
746 -452 0
746 -450 0
-746 452 450 0
-747 95 0
-747 746 0
747 -95 -746 0
748 -456 0
748 -455 0
-748 456 455 0
-749 129 0
-749 748 0
749 -129 -748 0
750 -601 0
750 -598 0
-750 601 598 0
-751 750 0
-751 77 0
751 -750 -77 0
752 -305 0
752 -303 0
-752 305 303 0
-753 754 0
-753 752 0
753 -754 -752 0
-755 67 0
-755 490 0
755 -67 -490 0
-756 56 0
-756 116 0
756 -56 -116 0
757 -758 0
757 -675 0
-757 758 675 0
-759 128 0
-759 757 0
759 -128 -757 0
760 -289 0
760 -287 0
-760 289 287 0
-761 60 0
-761 760 0
761 -60 -760 0
762 -763 0
762 -764 0
-762 763 764 0
-196 70 0
-196 762 0
196 -70 -762 0
765 -608 0
765 -606 0
-765 608 606 0
-766 129 0
-766 765 0
766 -129 -765 0
767 -370 0
767 -369 0
-767 370 369 0
-768 767 0
-768 119 0
768 -767 -119 0
172 -648 0
172 -645 0
-172 648 645 0
769 -686 0
769 -683 0
-769 686 683 0
-770 769 0
-770 77 0
770 -769 -77 0
771 -106 0
771 -491 0
-771 106 491 0
-772 771 0
-772 86 0
772 -771 -86 0
773 -700 0
773 -697 0
-773 700 697 0
-178 773 0
-178 70 0
178 -773 -70 0
774 -495 0
774 -492 0
-774 495 492 0
-177 774 0
-177 129 0
177 -774 -129 0
775 -572 0
775 -570 0
-775 572 570 0
-164 128 0
-164 775 0
164 -128 -775 0
776 -741 0
776 -740 0
-776 741 740 0
-163 776 0
-163 100 0
163 -776 -100 0
777 -513 0
777 -512 0
-777 513 512 0
-184 129 0
-184 777 0
184 -129 -777 0
778 -779 0
778 -688 0
-778 779 688 0
-780 778 0
-780 70 0
780 -778 -70 0
781 -330 0
781 -328 0
-781 330 328 0
-782 95 0
-782 781 0
782 -95 -781 0
-783 784 0
-783 125 0
783 -784 -125 0
785 -273 0
785 -271 0
-785 273 271 0
-188 786 0
-188 785 0
188 -786 -785 0
787 -234 0
787 -232 0
-787 234 232 0
-788 87 0
-788 787 0
788 -87 -787 0
789 -300 0
789 -298 0
-789 300 298 0
-790 789 0
-790 63 0
790 -789 -63 0
791 -792 0
791 -793 0
-791 792 793 0
-794 791 0
-794 70 0
794 -791 -70 0
795 -796 0
795 -702 0
-795 796 702 0
-192 70 0
-192 795 0
192 -70 -795 0
797 -111 0
797 -105 0
-797 111 105 0
-798 799 0
-798 77 0
798 -799 -77 0
800 -379 0
800 -378 0
-800 379 378 0
-801 800 0
-801 121 0
801 -800 -121 0
802 -751 0
802 -749 0
-802 751 749 0
-150 802 0
-150 87 0
150 -802 -87 0
-803 804 0
-803 127 0
803 -804 -127 0
-149 805 0
-149 803 0
149 -805 -803 0
806 -536 0
806 -535 0
-806 536 535 0
-161 806 0
-161 71 0
161 -806 -71 0
807 -772 0
807 -770 0
-807 772 770 0
-808 70 0
-808 807 0
808 -70 -807 0
809 -578 0
809 -577 0
-809 578 577 0
-810 809 0
-810 129 0
810 -809 -129 0
713 -811 0
713 -588 0
-713 811 588 0
737 -812 0
737 -597 0
-737 812 597 0
764 -813 0
764 -656 0
-764 813 656 0
793 -814 0
793 -756 0
-793 814 756 0
131 -730 0
131 -728 0
-131 730 728 0
-134 632 0
-134 70 0
134 -632 -70 0
-815 435 0
-815 70 0
815 -435 -70 0
-139 815 0
-139 63 0
139 -815 -63 0
-816 98 0
-816 101 0
816 -98 -101 0
-141 816 0
-141 58 0
141 -816 -58 0
-147 639 0
-147 70 0
147 -639 -70 0
-152 464 0
-152 128 0
152 -464 -128 0
-154 70 0
-154 77 0
154 -70 -77 0
157 -738 0
157 -734 0
-157 738 734 0
160 -810 0
160 -808 0
-160 810 808 0
166 -637 0
166 -636 0
-166 637 636 0
174 -717 0
174 -715 0
-174 717 715 0
817 -783 0
817 -782 0
-817 783 782 0
183 -817 0
183 -780 0
-183 817 780 0
818 -794 0
818 -790 0
-818 794 790 0
187 -818 0
187 -788 0
-187 818 788 0
191 -801 0
191 -798 0
-191 801 798 0
195 -768 0
195 -766 0
-195 768 766 0
819 -725 0
819 -723 0
-819 725 723 0
199 -819 0
199 -720 0
-199 819 720 0
203 -747 0
203 -745 0
-203 747 745 0
-209 55 0
-209 100 0
209 -55 -100 0
-211 95 0
-211 128 0
211 -95 -128 0
-820 60 0
-820 70 0
820 -60 -70 0
-216 820 0
-216 100 0
216 -820 -100 0
-821 87 0
-821 129 0
821 -87 -129 0
-225 821 0
-225 86 0
225 -821 -86 0
-227 70 0
-227 67 0
227 -70 -67 0
-229 77 0
-229 103 0
229 -77 -103 0
-822 70 0
-822 67 0
822 -70 -67 0
-233 822 0
-233 63 0
233 -822 -63 0
-823 129 0
-823 128 0
823 -129 -128 0
-235 823 0
-235 98 0
235 -823 -98 0
-239 128 0
-239 105 0
239 -128 -105 0
-242 100 0
-242 86 0
242 -100 -86 0
-244 67 0
-244 105 0
244 -67 -105 0
-246 100 0
-246 71 0
246 -100 -71 0
-824 60 0
-824 100 0
824 -60 -100 0
-251 824 0
-251 64 0
251 -824 -64 0
-253 117 0
-253 65 0
253 -117 -65 0
-825 100 0
-825 86 0
825 -100 -86 0
-255 825 0
-255 56 0
255 -825 -56 0
-826 100 0
-826 67 0
826 -100 -67 0
-260 826 0
-260 56 0
260 -826 -56 0
-262 95 0
-262 128 0
262 -95 -128 0
-265 59 0
-265 63 0
265 -59 -63 0
-267 128 0
-267 77 0
267 -128 -77 0
-270 100 0
-270 56 0
270 -100 -56 0
-272 100 0
-272 63 0
272 -100 -63 0
-275 100 0
-275 67 0
275 -100 -67 0
-277 95 0
-277 77 0
277 -95 -77 0
-279 117 0
-279 127 0
279 -117 -127 0
-282 100 0
-282 63 0
282 -100 -63 0
-827 80 0
-827 128 0
827 -80 -128 0
-285 827 0
-285 98 0
285 -827 -98 0
-828 100 0
-828 67 0
828 -100 -67 0
-288 828 0
-288 63 0
288 -828 -63 0
-292 70 0
-292 100 0
292 -70 -100 0
-295 117 0
-295 64 0
295 -117 -64 0
-297 55 0
-297 71 0
297 -55 -71 0
-299 100 0
-299 67 0
299 -100 -67 0
-304 81 0
-304 67 0
304 -81 -67 0
-307 100 0
-307 67 0
307 -100 -67 0
-311 95 0
-311 129 0
311 -95 -129 0
-829 107 0
-829 70 0
829 -107 -70 0
-313 829 0
-313 100 0
313 -829 -100 0
-315 107 0
-315 56 0
315 -107 -56 0
-317 100 0
-317 56 0
317 -100 -56 0
-320 80 0
-320 63 0
320 -80 -63 0
-323 128 0
-323 105 0
323 -128 -105 0
-325 100 0
-325 86 0
325 -100 -86 0
-830 59 0
-830 117 0
830 -59 -117 0
-327 830 0
-327 70 0
327 -830 -70 0
-831 67 0
-831 77 0
831 -67 -77 0
-329 831 0
-329 127 0
329 -831 -127 0
-331 128 0
-331 86 0
331 -128 -86 0
-340 128 0
-340 67 0
340 -128 -67 0
-342 100 0
-342 86 0
342 -100 -86 0
-832 55 0
-832 58 0
832 -55 -58 0
-344 832 0
-344 128 0
344 -832 -128 0
-833 69 0
-833 107 0
833 -69 -107 0
-350 833 0
-350 67 0
350 -833 -67 0
-352 129 0
-352 71 0
352 -129 -71 0
-834 100 0
-834 67 0
834 -100 -67 0
-361 834 0
-361 56 0
361 -834 -56 0
-364 362 0
-364 128 0
364 -362 -128 0
-390 80 0
-390 70 0
390 -80 -70 0
-392 67 0
-392 64 0
392 -67 -64 0
-394 80 0
-394 77 0
394 -80 -77 0
-401 399 0
-401 56 0
401 -399 -56 0
-407 405 0
-407 77 0
407 -405 -77 0
-835 60 0
-835 67 0
835 -60 -67 0
-412 835 0
-412 77 0
412 -835 -77 0
-425 423 0
-425 91 0
425 -423 -91 0
-836 100 0
-836 86 0
836 -100 -86 0
-427 836 0
-427 127 0
427 -836 -127 0
-837 428 0
-837 80 0
837 -428 -80 0
-429 837 0
-429 70 0
429 -837 -70 0
-431 129 0
-431 128 0
431 -129 -128 0
-432 98 0
-432 96 0
432 -98 -96 0
-838 449 0
-838 70 0
838 -449 -70 0
-451 838 0
-451 67 0
451 -838 -67 0
-453 129 0
-453 128 0
453 -129 -128 0
-460 56 0
-460 125 0
460 -56 -125 0
-462 461 0
-462 70 0
462 -461 -70 0
-463 129 0
-463 106 0
463 -129 -106 0
-467 70 0
-467 105 0
467 -70 -105 0
-473 77 0
-473 119 0
473 -77 -119 0
-477 67 0
-477 71 0
477 -67 -71 0
-481 81 0
-481 63 0
481 -81 -63 0
-483 60 0
-483 56 0
483 -60 -56 0
-486 484 0
-486 80 0
486 -484 -80 0
-493 110 0
-493 67 0
493 -110 -67 0
-499 67 0
-499 64 0
499 -67 -64 0
-502 129 0
-502 77 0
502 -129 -77 0
-505 95 0
-505 128 0
505 -95 -128 0
-514 67 0
-514 71 0
514 -67 -71 0
-517 515 0
-517 128 0
517 -515 -128 0
-519 100 0
-519 63 0
519 -100 -63 0
-522 520 0
-522 100 0
522 -520 -100 0
-525 70 0
-525 523 0
525 -70 -523 0
-533 77 0
-533 531 0
533 -77 -531 0
-537 59 0
-537 67 0
537 -59 -67 0
544 -377 0
544 -64 0
-544 377 64 0
-839 86 0
-839 114 0
839 -86 -114 0
-554 839 0
-554 123 0
554 -839 -123 0
557 -77 0
557 -404 0
-557 77 404 0
-561 559 0
-561 129 0
561 -559 -129 0
-565 80 0
-565 64 0
565 -80 -64 0
-567 100 0
-567 86 0
567 -100 -86 0
-569 128 0
-569 105 0
569 -128 -105 0
-574 128 0
-574 105 0
574 -128 -105 0
-579 100 0
-579 63 0
579 -100 -63 0
-583 67 0
-583 71 0
583 -67 -71 0
590 -106 0
590 -67 0
-590 106 67 0
-599 128 0
-599 105 0
599 -128 -105 0
-605 56 0
-605 77 0
605 -56 -77 0
618 -532 0
618 -530 0
-618 532 530 0
-621 128 0
-621 77 0
621 -128 -77 0
-626 67 0
-626 63 0
626 -67 -63 0
-629 627 0
-629 100 0
629 -627 -100 0
-631 106 0
-631 103 0
631 -106 -103 0
840 -510 0
840 -509 0
-840 510 509 0
634 -840 0
634 -64 0
-634 840 64 0
-638 100 0
-638 63 0
638 -100 -63 0
-646 70 0
-646 71 0
646 -70 -71 0
-650 67 0
-650 56 0
650 -67 -56 0
662 -527 0
662 -524 0
-662 527 524 0
-665 664 0
-665 53 0
665 -664 -53 0
841 -116 0
841 -547 0
-841 116 547 0
667 -841 0
667 -545 0
-667 841 545 0
672 -447 0
672 -445 0
-672 447 445 0
-678 95 0
-678 77 0
678 -95 -77 0
-842 682 0
-842 87 0
842 -682 -87 0
-684 842 0
-684 128 0
684 -842 -128 0
-693 80 0
-693 691 0
693 -80 -691 0
-698 397 0
-698 696 0
698 -397 -696 0
-703 100 0
-703 64 0
703 -100 -64 0
707 -614 0
707 -612 0
-707 614 612 0
712 -587 0
712 -585 0
-712 587 585 0
843 -622 0
843 -620 0
-843 622 620 0
722 -843 0
722 -619 0
-722 843 619 0
-731 112 0
-731 729 0
731 -112 -729 0
-733 129 0
-733 77 0
733 -129 -77 0
844 -596 0
844 -64 0
-844 596 64 0
736 -844 0
736 -595 0
-736 844 595 0
-743 129 0
-743 742 0
743 -129 -742 0
-754 100 0
-754 77 0
754 -100 -77 0
845 -681 0
845 -679 0
-845 681 679 0
758 -845 0
758 -677 0
-758 845 677 0
846 -654 0
846 -652 0
-846 654 652 0
763 -846 0
763 -649 0
-763 846 649 0
847 -695 0
847 -692 0
-847 695 692 0
779 -847 0
779 -690 0
-779 847 690 0
-784 128 0
-784 71 0
784 -128 -71 0
-786 129 0
-786 77 0
786 -129 -77 0
792 -755 0
792 -753 0
-792 755 753 0
848 -710 0
848 -708 0
-848 710 708 0
796 -848 0
796 -705 0
-796 848 705 0
-849 797 0
-849 129 0
849 -797 -129 0
-799 849 0
-799 67 0
799 -849 -67 0
-804 70 0
-804 100 0
804 -70 -100 0
-805 125 0
-805 123 0
805 -125 -123 0
811 -593 0
811 -591 0
-811 593 591 0
812 -93 0
812 -123 0
-812 93 123 0
813 -660 0
813 -658 0
-813 660 658 0
814 -761 0
814 -759 0
-814 761 759 0
